language ESSENCE' 1.0
letting lastdx=100
letting cage be [
[14,9,5,0,0, 0,0, 0,0, 0,0],
[15,4,2,0,0, 0,0, 0,0, 0,0],
[13,2,12,0,0, 0,0, 0,0, 0,0],
[22,2,6,1,6,1,5,0,0, 0,0],
[19,7,13,6,13,0,0, 0,0, 0,0],
[55,1,8,2,8,3,8,3,7,4,7],
[33,15,12,15,13,15,14,14,14,14,13],
[20,5,6,5,7,6,7,6,8,0,0],
[8,14,8,0,0, 0,0, 0,0, 0,0],
[13,15,11,0,0, 0,0, 0,0, 0,0],
[6,6,15,0,0, 0,0, 0,0, 0,0],
[8,10,5,10,4,0,0, 0,0, 0,0],
[47,10,9,10,8,9,8,9,9,8,9],
[5,10,7,0,0, 0,0, 0,0, 0,0],
[14,9,7,9,6,0,0, 0,0, 0,0],
[2,9,16,0,0, 0,0, 0,0, 0,0],
[11,12,7,11,7,0,0, 0,0, 0,0],
[12,11,15,0,0, 0,0, 0,0, 0,0],
[9,14,15,0,0, 0,0, 0,0, 0,0],
[37,3,15,2,15,2,14,1,14,1,13],
[5,15,6,15,5,0,0, 0,0, 0,0],
[31,12,15,12,14,11,14,10,14,10,13],
[38,2,3,1,3,1,2,1,1,0,0],
[34,4,1,3,1,3,2,2,2,2,1],
[12,10,3,0,0, 0,0, 0,0, 0,0],
[9,9,3,0,0, 0,0, 0,0, 0,0],
[1,7,3,0,0, 0,0, 0,0, 0,0],
[40,7,14,6,14,5,14,4,14,3,14],
[33,14,10,14,9,15,9,0,0, 0,0],
[34,11,4,12,4,12,3,0,0, 0,0],
[6,16,13,0,0, 0,0, 0,0, 0,0],
[15,5,16,0,0, 0,0, 0,0, 0,0],
[54,10,6,11,6,12,6,13,6,14,6],
[51,8,3,8,4,9,4,7,4,6,4],
[44,6,10,6,11,6,12,7,12,0,0],
[5,5,15,4,15,0,0, 0,0, 0,0],
[21,1,7,2,7,0,0, 0,0, 0,0],
[43,8,15,8,16,7,16,6,16,7,15],
[48,16,10,15,10,16,11,16,12,0,0],
[12,16,4,0,0, 0,0, 0,0, 0,0],
[23,11,16,12,16,13,16,0,0, 0,0],
[18,13,4,14,4,14,5,0,0, 0,0],
[12,3,3,3,4,0,0, 0,0, 0,0],
[6,8,6,0,0, 0,0, 0,0, 0,0],
[43,6,3,6,2,5,2,5,3,4,3],
[5,5,10,0,0, 0,0, 0,0, 0,0],
[33,12,5,11,5,13,5,0,0, 0,0],
[21,2,10,1,10,0,0, 0,0, 0,0],
[12,13,7,0,0, 0,0, 0,0, 0,0],
[11,2,13,0,0, 0,0, 0,0, 0,0],
[14,10,15,10,16,0,0, 0,0, 0,0],
[3,4,8,0,0, 0,0, 0,0, 0,0],
[8,11,1,0,0, 0,0, 0,0, 0,0],
[28,10,12,11,12,11,13,0,0, 0,0],
[18,1,11,1,12,0,0, 0,0, 0,0],
[41,6,5,7,5,8,5,0,0, 0,0],
[14,13,3,0,0, 0,0, 0,0, 0,0],
[7,4,9,0,0, 0,0, 0,0, 0,0],
[16,10,11,0,0, 0,0, 0,0, 0,0],
[34,16,9,16,8,16,7,16,6,16,5],
[21,13,14,13,15,0,0, 0,0, 0,0],
[4,1,4,0,0, 0,0, 0,0, 0,0],
[28,14,7,15,7,15,8,0,0, 0,0],
[34,8,1,9,1,9,2,10,2,10,1],
[53,8,14,9,14,9,15,9,13,0,0],
[28,14,2,14,1,15,1,15,2,0,0],
[20,5,9,5,8,0,0, 0,0, 0,0],
[17,4,11,5,11,5,12,0,0, 0,0],
[4,7,10,0,0, 0,0, 0,0, 0,0],
[14,4,10,3,10,0,0, 0,0, 0,0],
[14,14,12,14,11,13,11,0,0, 0,0],
[14,7,11,0,0, 0,0, 0,0, 0,0],
[15,11,8,0,0, 0,0, 0,0, 0,0],
[20,13,13,12,13,0,0, 0,0, 0,0],
[29,8,10,8,11,8,12,8,13,0,0],
[8,5,4,0,0, 0,0, 0,0, 0,0],
[32,5,1,6,1,7,1,0,0, 0,0],
[13,3,11,2,11,0,0, 0,0, 0,0],
[35,7,8,8,8,8,7,7,7,0,0],
[24,15,4,15,3,14,3,0,0, 0,0],
[14,16,14,0,0, 0,0, 0,0, 0,0],
[32,11,10,11,9,12,9,12,10,13,10],
[23,13,12,12,12,12,11,11,11,0,0],
[14,3,16,4,16,0,0, 0,0, 0,0],
[28,4,5,4,4,5,5,0,0, 0,0],
[19,7,9,6,9,0,0, 0,0, 0,0],
[25,16,2,16,1,16,3,0,0, 0,0],
[18,2,4,2,5,3,5,0,0, 0,0],
[46,12,2,12,1,13,1,13,2,0,0],
[14,1,15,0,0, 0,0, 0,0, 0,0],
[25,15,16,14,16,0,0, 0,0, 0,0],
[11,3,6,4,6,0,0, 0,0, 0,0],
[20,1,9,2,9,3,9,0,0, 0,0],
[25,1,16,2,16,0,0, 0,0, 0,0],
[25,6,6,7,6,0,0, 0,0, 0,0],
[11,7,2,8,2,0,0, 0,0, 0,0],
[14,9,10,10,10,0,0, 0,0, 0,0],
[9,9,11,9,12,0,0, 0,0, 0,0],
[16,11,2,11,3,0,0, 0,0, 0,0],
[18,12,8,13,8,13,9,0,0, 0,0],
[26,15,15,16,15,16,16,0,0, 0,0]
]
